0 38
0 182
0 204
0 239
0 268
0 282
0 320
0 351
0 359
0 379
0 402
0 411
0 518
0 612
0 699
0 750
0 782
0 948
0 978
0 1639
0 1640
0 1641
0 1642
0 1643
0 1644
0 1645
0 1646
0 1647
0 1648
0 1649
1 39
1 105
1 130
1 134
1 215
1 233
1 296
1 311
1 317
1 390
1 419
1 448
1 465
1 482
1 498
1 559
1 603
1 697
1 714
1 821
1 833
1 842
1 859
1 865
1 866
1 867
1 1023
1 1085
1 1086
1 1236
1 1237
1 1238
1 1239
1 1240
1 1241
1 1242
2 7
2 33
2 43
2 62
2 223
2 385
2 405
2 431
2 534
2 592
2 687
2 811
2 812
2 813
2 1050
2 1916
3 55
3 173
3 233
3 238
3 266
3 268
3 282
3 303
3 307
3 311
3 312
3 323
3 327
3 329
3 330
3 333
3 340
3 342
3 343
3 344
3 346
3 367
3 371
3 376
3 390
3 438
3 474
3 488
3 489
3 491
3 498
3 510
3 517
3 525
3 543
3 566
3 569
3 578
3 598
3 604
3 627
3 630
3 642
3 646
3 701
3 715
3 736
3 776
3 827
3 828
3 910
3 911
3 912
3 918
3 961
3 997
3 1552
3 1553
3 1554
3 1555
3 1556
3 1557
3 1558
3 1559
4 100
4 282
4 315
4 325
4 327
4 359
4 411
4 677
4 764
4 1243
4 1244
4 1245
5 99
5 497
5 583
5 671
5 788
5 789
5 1028
5 1029
5 1030
5 1876
5 1877
5 1878
5 1879
5 1880
5 1881
5 1882
6 31
6 297
6 315
6 359
6 436
6 670
6 1874
6 1875
7 33
7 43
7 62
7 97
7 116
7 223
7 320
7 373
7 405
7 407
7 431
7 432
7 441
7 482
7 498
7 500
7 534
7 569
7 570
7 584
7 687
7 735
7 813
7 1050
7 1544
7 1545
7 1546
8 79
8 96
8 136
8 171
8 231
8 248
8 266
8 312
8 313
8 320
8 321
8 322
8 324
8 333
8 340
8 341
8 343
8 344
8 371
8 403
8 406
8 408
8 412
8 434
8 439
8 451
8 459
8 465
8 466
8 469
8 543
8 564
8 575
8 584
8 602
8 702
8 720
8 723
8 736
8 790
8 889
8 970
8 1031
8 1328
8 1329
8 1330
8 1331
8 1332
8 1333
8 1334
8 1335
8 1336
8 1337
8 1338
8 1339
8 1340
8 1341
8 1342
8 1343
8 1344
8 1345
9 39
9 192
9 413
9 713
9 1347
10 82
10 279
10 315
10 375
10 503
10 518
10 969
10 1676
11 78
11 118
11 685
11 686
11 810
11 1235
12 63
12 70
12 91
12 161
12 176
12 191
12 199
12 219
12 228
12 232
12 291
12 347
12 348
12 377
12 378
12 390
12 402
12 442
12 443
12 444
12 445
12 446
12 463
12 477
12 478
12 479
12 480
12 505
12 506
12 507
12 508
12 532
12 533
12 545
12 547
12 548
12 549
12 550
12 551
12 552
12 553
12 555
12 590
12 605
12 606
12 607
12 608
12 662
12 672
12 682
12 704
12 706
12 707
12 708
12 709
12 710
12 794
12 795
12 808
12 836
12 837
12 838
12 1003
12 1004
12 1005
12 1006
12 1007
12 1008
12 1009
12 1010
12 1018
12 1078
12 1079
12 1846
12 1847
13 99
13 153
13 159
13 166
13 177
13 203
13 316
13 352
13 365
13 382
13 424
13 425
13 457
13 495
13 496
13 524
13 1020
13 1021
13 1851
13 1852
13 1853
13 1854
14 192
14 315
14 349
14 350
14 557
14 612
14 712
14 713
14 1989
14 1990
14 1991
14 1992
15 133
15 184
15 233
15 239
15 319
15 340
15 500
15 510
15 520
15 542
15 774
15 835
15 1307
15 1308
16 870
16 1009
16 1010
16 1348
16 1349
16 1350
17 18
17 270
17 303
17 313
17 483
17 500
17 516
17 536
17 562
17 563
17 593
17 597
17 598
17 688
17 729
17 730
17 733
17 874
17 914
17 915
17 1064
17 1065
17 1234
18 340
18 373
18 500
18 597
18 598
18 1064
18 1065
18 1066
18 1067
18 1942
18 1943
18 1944
18 1945
18 1946
19 215
19 233
19 297
19 298
19 326
19 417
19 556
19 609
19 839
19 1082
19 1983
19 1984
19 1985
19 1986
20 359
20 375
20 401
20 503
20 612
20 752
20 868
20 1028
20 1168
20 1169
20 1170
21 49
21 82
21 315
21 527
21 691
21 734
21 778
21 822
21 921
21 1016
21 1047
21 1400
21 1401
21 1402
21 1403
21 1404
21 1405
21 1406
22 24
22 256
22 334
22 340
22 373
22 374
22 401
22 423
22 451
22 483
22 486
22 492
22 503
22 515
22 516
22 519
22 535
22 536
22 562
22 563
22 568
22 622
22 623
22 624
22 625
22 626
22 721
22 729
22 730
22 731
22 737
22 748
22 816
22 873
22 874
22 875
22 878
22 898
22 899
22 900
22 912
22 1048
22 1051
22 1351
22 1352
22 1353
22 1354
22 1355
22 1356
22 1357
22 1358
22 1359
22 1360
22 1361
22 1362
22 1363
22 1364
22 1365
22 1366
22 1367
22 1368
22 1369
22 1370
22 1371
22 1372
22 1373
22 1374
22 1375
22 1376
22 1377
22 1378
23 169
23 297
23 315
23 319
23 325
23 349
23 417
23 601
23 761
23 958
24 25
24 168
24 212
24 373
24 374
24 423
24 483
24 486
24 515
24 516
24 519
24 535
24 536
24 562
24 563
24 576
24 593
24 596
24 622
24 623
24 624
24 625
24 626
24 688
24 689
24 729
24 730
24 731
24 732
24 733
24 898
24 899
24 900
24 901
24 946
24 1531
24 1532
24 1533
24 1534
24 1535
24 1536
24 1537
25 54
25 168
25 340
25 373
25 374
25 423
25 451
25 483
25 486
25 515
25 516
25 519
25 535
25 536
25 562
25 563
25 576
25 593
25 596
25 598
25 622
25 623
25 624
25 625
25 626
25 688
25 689
25 720
25 721
25 732
25 733
25 748
25 762
25 814
25 815
25 863
25 864
25 871
25 872
25 873
25 875
25 901
25 942
25 945
25 947
25 1274
25 1275
26 56
26 97
26 252
26 298
26 368
26 429
26 461
26 618
26 631
26 665
26 674
26 676
26 716
26 717
26 740
26 778
26 845
26 846
26 847
26 848
26 849
26 850
26 851
26 852
26 853
26 854
26 855
26 856
26 857
26 858
26 1228
26 1229
26 1230
27 31
27 359
27 436
27 518
27 677
27 761
27 1677
28 279
28 298
28 326
28 430
28 435
28 436
28 440
28 462
28 528
28 585
28 594
28 618
28 675
28 716
28 717
28 718
28 749
28 767
28 800
28 802
28 844
28 886
28 1000
28 1027
28 1037
28 1038
28 1039
28 1041
28 1042
28 1043
28 1044
28 1045
28 1046
28 1099
28 1100
28 1101
28 1102
28 1103
28 1104
28 1105
28 1106
28 1107
28 1108
28 1109
28 1110
28 1111
28 1112
28 1113
28 1114
28 1115
28 1116
28 1117
28 1118
28 1119
28 1120
28 1121
28 1122
28 1123
28 1124
28 1125
28 1126
28 1127
28 1128
28 1129
28 1130
28 1131
28 1132
28 1133
28 1134
28 1135
28 1136
28 1137
28 1138
28 1139
28 1140
28 1141
28 1142
28 1143
28 1144
28 1145
28 1146
28 1147
28 1148
28 1149
28 1150
28 1151
28 1152
28 1153
28 1154
28 1155
28 1156
28 1157
28 1158
28 1159
28 1160
28 1161
28 1162
28 1163
29 34
29 44
29 123
29 153
29 255
29 264
29 273
29 274
29 284
29 610
29 655
29 656
29 711
29 996
29 1083
29 1084
29 1782
29 1783
30 39
30 133
30 670
30 734
30 806
31 75
31 82
31 249
31 309
31 314
31 375
31 527
31 693
31 952
32 247
32 745
32 785
32 822
32 928
32 1597
32 1598
32 1599
32 1600
33 62
33 267
33 311
33 405
33 465
33 1033
34 37
34 44
34 99
34 123
34 153
34 166
34 177
34 264
34 273
34 284
34 401
34 437
34 503
34 523
34 581
34 664
34 711
34 840
34 1013
34 1014
35 52
35 82
35 375
35 402
35 458
35 631
35 691
35 740
35 921
35 922
36 102
36 172
36 631
36 1017
36 1515
36 1516
36 1517
37 95
37 99
37 153
37 166
37 177
37 264
37 273
37 274
37 364
37 410
37 425
37 437
37 656
37 738
37 963
37 991
37 1576
37 1577
37 1578
38 80
38 195
38 267
38 311
38 402
38 414
38 504
38 570
38 653
38 663
38 1019
38 1396
38 1397
39 104
39 109
39 122
39 124
39 328
39 357
39 358
39 413
39 415
39 416
39 447
39 475
39 476
40 95
40 99
40 108
40 153
40 163
40 166
40 177
40 273
40 274
40 410
40 421
40 437
40 484
40 654
40 738
40 951
41 68
41 119
41 233
41 327
41 390
41 456
41 502
41 542
41 544
41 582
41 658
41 705
41 1076
41 1785
42 74
42 297
42 326
42 359
42 611
42 703
42 704
42 1074
42 1978
42 1979
43 62
43 373
43 385
43 405
43 534
43 592
43 687
43 811
43 812
43 813
44 95
44 99
44 123
44 153
44 166
44 177
44 264
44 425
44 523
44 581
44 654
44 655
44 656
44 695
44 990
44 991
44 1013
44 1781
45 211
45 267
45 359
45 417
45 1087
45 1994
45 1995
45 1996
45 1997
46 224
46 373
46 374
46 451
46 483
46 486
46 515
46 535
46 536
46 576
46 596
46 623
46 626
46 731
46 732
46 762
46 814
46 863
46 864
46 944
46 1171
46 1172
46 1173
46 1174
46 1175
46 1176
47 97
47 296
47 297
47 298
47 325
47 368
47 417
47 423
47 429
47 461
47 462
47 521
47 528
47 529
47 587
47 589
47 619
47 661
47 742
47 800
47 925
47 960
47 1276
47 1277
47 1278
47 1279
47 1280
47 1281
47 1282
47 1283
47 1284
47 1285
47 1286
47 1287
47 1288
47 1289
48 99
48 151
48 153
48 166
48 177
48 209
48 273
48 274
48 295
48 316
48 338
48 363
48 365
48 496
48 524
48 581
48 654
48 825
48 979
49 325
49 375
49 521
49 691
49 750
49 1622
49 1623
49 1624
49 1625
49 1626
49 1627
49 1628
49 1629
49 1630
50 198
50 266
50 267
50 334
50 349
50 417
50 510
50 663
50 781
50 782
50 1019
50 1848
50 1849
50 1850
51 80
51 96
51 117
51 137
51 167
51 266
51 303
51 313
51 321
51 322
51 323
51 324
51 333
51 341
51 343
51 344
51 345
51 356
51 370
51 372
51 387
51 389
51 395
51 403
51 432
51 433
51 464
51 469
51 488
51 537
51 577
51 643
51 644
51 645
51 646
51 757
51 758
51 759
51 809
51 860
51 861
51 967
51 1077
51 1263
51 1264
51 1265
51 1266
52 142
52 266
52 298
52 303
52 320
52 322
52 324
52 334
52 341
52 342
52 374
52 402
52 441
52 466
52 473
52 474
52 502
52 629
52 832
52 888
52 926
53 97
53 208
53 296
53 297
53 325
53 436
53 458
53 680
53 750
53 841
53 922
53 1294
53 1295
53 1296
53 1297
53 1298
54 188
54 315
54 423
54 557
54 879
54 994
54 1408
54 1409
54 1410
54 1411
54 1412
54 1413
54 1414
55 85
55 88
55 225
55 238
55 271
55 277
55 282
55 303
55 307
55 312
55 330
55 346
55 367
55 376
55 379
55 386
55 400
55 438
55 471
55 489
55 491
55 517
55 543
55 572
55 573
55 578
55 604
55 641
55 642
55 646
55 715
55 755
55 961
55 962
56 298
56 618
56 631
56 716
56 717
56 740
56 844
56 845
56 846
56 847
56 848
56 849
56 850
56 851
56 852
56 853
56 854
56 855
56 856
56 857
56 858
56 1223
56 1224
56 1225
56 1226
56 1227
57 80
57 376
57 1309
57 1310
57 1311
57 1312
58 89
58 252
58 280
58 296
58 297
58 298
58 325
58 331
58 368
58 409
58 435
58 528
58 529
58 600
58 640
58 675
58 676
58 751
58 906
58 949
58 950
58 1068
58 1213
58 1214
58 1215
58 1216
58 1217
58 1218
58 1219
58 1220
58 1221
58 1222
59 85
59 105
59 210
59 225
59 233
59 238
59 266
59 267
59 268
59 282
59 327
59 346
59 376
59 390
59 391
59 411
59 412
59 438
59 439
59 440
59 448
59 473
59 474
59 542
59 543
59 559
59 603
59 604
59 609
59 697
59 698
59 699
59 700
59 701
59 826
59 827
59 828
59 829
59 830
59 831
59 832
59 835
59 1960
59 1961
59 1962
59 1963
59 1964
59 1965
59 1966
59 1967
59 1968
59 1969
59 1970
59 1971
59 1972
59 1973
59 1974
59 1975
60 215
60 233
60 409
60 427
60 473
60 522
60 609
60 966
60 1674
60 1675
61 63
61 91
61 176
61 219
61 232
61 278
61 348
61 377
61 378
61 442
61 463
61 477
61 480
61 490
61 508
61 546
61 590
61 591
61 606
61 608
61 651
61 683
61 684
61 771
61 795
61 807
61 808
61 971
61 972
61 992
61 993
61 1007
61 1690
61 1691
61 1692
62 385
62 405
62 534
62 592
62 811
62 812
62 1425
63 70
63 91
63 161
63 176
63 191
63 199
63 228
63 232
63 278
63 291
63 347
63 348
63 377
63 378
63 442
63 443
63 444
63 445
63 446
63 477
63 478
63 479
63 480
63 505
63 506
63 507
63 508
63 545
63 546
63 547
63 548
63 549
63 550
63 551
63 552
63 553
63 554
63 555
63 605
63 606
63 607
63 608
63 706
63 707
63 708
63 709
63 710
63 836
63 837
63 838
63 1078
63 1079
63 1080
63 1081
64 99
64 128
64 153
64 185
64 206
64 397
64 492
64 494
64 661
64 728
64 743
64 788
64 789
64 891
64 892
64 893
64 934
64 935
64 936
64 937
64 938
64 980
64 983
64 1029
64 1030
64 1481
64 1482
64 1483
64 1484
64 1485
64 1486
64 1487
64 1488
64 1489
64 1490
64 1491
64 1492
64 1493
64 1494
64 1495
64 1496
64 1497
64 1498
64 1499
64 1500
64 1501
64 1502
64 1503
64 1504
64 1505
64 1506
64 1507
64 1508
65 233
65 322
65 370
65 373
65 452
65 466
65 543
65 569
65 602
65 939
65 1611
66 150
66 233
66 244
66 268
66 282
66 329
66 346
66 366
66 376
66 379
66 390
66 392
66 471
66 473
66 485
66 504
66 510
66 512
66 517
66 567
66 570
66 583
66 615
66 621
66 629
66 632
66 633
66 635
66 638
66 642
66 648
66 653
66 694
66 697
66 860
66 869
66 870
66 883
66 884
66 911
66 919
66 931
66 966
66 987
66 1075
66 1181
66 1182
66 1183
66 1184
66 1185
66 1186
66 1187
66 1188
66 1189
66 1190
66 1191
66 1192
66 1193
66 1194
66 1195
66 1196
66 1197
66 1198
66 1199
66 1200
66 1201
66 1202
66 1203
66 1204
66 1205
66 1206
66 1207
66 1208
66 1209
66 1210
66 1211
67 144
67 188
67 678
67 679
67 770
67 804
67 982
67 1727
67 1728
67 1729
68 119
68 216
68 241
68 245
68 268
68 283
68 327
68 502
68 582
68 609
68 714
69 82
69 146
69 297
69 504
69 540
69 541
69 704
69 821
69 1947
70 91
70 161
70 176
70 191
70 199
70 228
70 347
70 348
70 377
70 378
70 442
70 443
70 445
70 446
70 463
70 477
70 478
70 479
70 480
70 505
70 507
70 532
70 545
70 547
70 548
70 549
70 550
70 551
70 552
70 553
70 554
70 605
70 607
70 636
70 662
70 707
70 708
70 709
70 710
70 794
70 837
70 1005
70 1008
70 1034
70 1606
70 1607
70 1608
70 1609
71 257
71 297
71 349
71 401
71 418
71 527
71 539
71 557
71 652
71 763
71 764
71 765
71 766
71 772
71 783
71 973
71 974
71 975
71 976
71 977
71 1002
71 1072
71 1693
71 1694
71 1695
71 1696
71 1697
71 1698
71 1699
71 1700
71 1701
72 91
72 768
72 981
72 1702
72 1703
72 1704
72 1705
72 1706
72 1707
72 1708
72 1709
72 1710
72 1711
72 1712
72 1713
72 1714
72 1715
72 1716
72 1717
72 1718
72 1719
72 1720
72 1721
72 1722
72 1723
72 1724
73 87
73 97
73 265
73 298
73 326
73 349
73 404
73 418
73 430
73 462
73 501
73 509
73 529
73 530
73 531
73 540
73 541
73 556
73 589
73 680
73 681
73 703
73 805
73 806
73 1049
73 1908
73 1909
73 1910
73 1911
73 1912
73 1913
74 233
74 296
74 297
74 375
74 391
74 501
74 504
75 741
75 754
75 764
75 767
75 1579
75 1580
75 1581
75 1582
75 1583
75 1584
76 182
76 204
76 237
76 351
76 379
76 660
76 775
76 776
76 1823
76 1824
76 1825
77 101
77 128
77 133
77 267
77 319
77 650
77 696
77 1179
77 1180
78 685
78 686
79 266
79 303
79 321
79 323
79 341
79 367
79 374
79 399
79 403
79 434
79 439
79 466
79 467
79 575
79 649
79 652
79 970
79 1678
79 1679
79 1680
79 1681
79 1682
79 1683
79 1684
80 96
80 143
80 167
80 171
80 219
80 266
80 268
80 303
80 312
80 313
80 321
80 322
80 323
80 324
80 333
80 341
80 342
80 343
80 344
80 345
80 356
80 370
80 371
80 372
80 387
80 389
80 407
80 408
80 418
80 432
80 433
80 434
80 441
80 464
80 465
80 466
80 467
80 468
80 469
80 470
80 537
80 538
80 690
80 820
80 1934
80 1935
81 311
81 375
81 939
81 1166
81 1167
82 142
82 298
82 326
82 409
82 905
82 1071
83 337
83 482
83 698
83 768
83 869
83 1346
84 596
85 88
85 189
85 210
85 225
85 238
85 268
85 271
85 277
85 282
85 303
85 312
85 346
85 376
85 386
85 400
85 407
85 438
85 467
85 491
85 578
85 604
85 700
85 1457
85 1458
85 1459
85 1460
85 1461
86 100
86 670
86 859
86 1177
86 1178
87 90
87 103
87 120
87 391
87 465
87 482
87 1257
88 189
88 210
88 233
88 238
88 266
88 271
88 277
88 282
88 307
88 327
88 330
88 346
88 367
88 376
88 386
88 390
88 400
88 411
88 438
88 578
88 579
88 670
88 828
88 894
88 923
88 953
88 954
88 986
88 1073
88 1512
88 1513
88 1514
89 97
89 298
89 326
89 368
89 404
89 429
89 435
89 461
89 462
89 529
89 531
89 556
89 674
89 675
89 676
89 800
89 801
89 1037
89 1038
89 1039
89 1040
89 1041
89 1042
89 1043
89 1044
89 1045
89 1046
89 1047
89 1899
89 1900
89 1901
89 1902
89 1903
89 1904
89 1905
90 120
90 140
90 217
90 290
90 427
90 803
91 176
91 191
91 199
91 228
91 232
91 320
91 348
91 377
91 378
91 401
91 402
91 440
91 442
91 443
91 444
91 445
91 446
91 463
91 477
91 479
91 480
91 505
91 506
91 507
91 508
91 532
91 533
91 545
91 546
91 547
91 548
91 550
91 551
91 554
91 555
91 584
91 590
91 594
91 606
91 607
91 636
91 662
91 682
91 683
91 707
91 709
91 807
91 836
91 929
91 972
91 981
91 1003
91 1004
91 1006
91 1026
91 1601
91 1602
91 1603
91 1604
91 1605
92 297
92 325
92 349
92 409
92 436
92 518
92 661
92 761
92 995
93 243
93 475
93 511
93 669
93 741
93 839
93 955
93 1090
93 1091
93 1092
94 417
94 595
95 108
95 201
95 207
95 273
95 274
95 364
95 484
95 524
95 610
95 654
95 655
95 664
95 932
95 933
95 964
95 1596
96 103
96 113
96 117
96 136
96 137
96 143
96 167
96 171
96 194
96 212
96 219
96 266
96 288
96 303
96 312
96 313
96 321
96 322
96 323
96 324
96 333
96 341
96 342
96 343
96 344
96 345
96 356
96 370
96 371
96 372
96 387
96 395
96 403
96 407
96 408
96 432
96 433
96 453
96 454
96 464
96 467
96 468
96 469
96 470
96 525
96 537
96 538
96 577
96 643
96 644
96 645
96 649
96 809
96 877
97 100
97 102
97 113
97 122
97 124
97 136
97 139
97 145
97 152
97 188
97 208
97 217
97 298
97 304
97 319
97 339
97 368
97 587
97 618
97 772
97 862
98 139
98 493
98 781
98 908
98 984
98 1299
99 108
99 123
99 138
99 151
99 153
99 154
99 158
99 159
99 163
99 166
99 177
99 179
99 201
99 203
99 207
99 209
99 220
99 221
99 235
99 255
99 264
99 274
99 284
99 295
99 338
99 352
99 360
99 363
99 380
99 382
99 424
99 457
99 513
99 561
99 671
100 784
100 960
100 1669
101 455
101 1730
101 1731
101 1732
102 233
102 268
102 296
102 441
102 462
102 521
102 779
102 1017
103 113
103 136
103 143
103 171
103 194
103 219
103 266
103 303
103 313
103 322
103 323
103 324
103 341
103 342
103 343
103 344
103 345
103 356
103 371
103 372
103 387
103 399
103 403
103 408
103 432
103 433
103 439
103 452
103 453
103 459
103 466
103 467
103 468
103 538
103 565
103 602
103 644
103 758
103 779
103 1032
103 1542
103 1543
104 109
104 110
104 165
104 692
104 1012
105 111
105 146
105 183
105 186
105 239
105 266
105 286
105 293
105 312
105 323
105 324
105 333
105 342
105 343
105 344
105 371
105 383
105 403
105 407
105 426
105 500
105 525
105 666
105 667
105 668
105 1023
105 1866
106 123
106 421
106 727
106 728
106 1426
106 1427
106 1428
106 1429
106 1430
106 1431
106 1432
106 1433
106 1434
106 1435
106 1436
106 1437
107 349
107 742
107 753
107 754
107 927
107 1593
107 1594
107 1595
108 153
108 166
108 177
108 201
108 207
108 273
108 364
108 425
108 484
108 656
108 1631
109 110
109 165
109 647
109 968
109 1012
110 647
110 968
110 1070
111 268
111 276
111 559
111 570
111 583
111 653
111 663
111 698
111 902
111 1258
111 1259
111 1260
111 1261
111 1262
112 118
112 200
112 259
112 301
112 558
112 620
112 702
112 722
112 834
112 1407
113 265
113 266
113 288
113 296
113 298
113 323
113 325
113 356
113 361
113 370
113 371
113 387
113 395
113 404
113 427
113 434
113 436
113 452
113 458
113 459
113 511
113 521
113 529
113 564
113 597
113 665
113 817
113 929
113 969
113 1451
113 1452
114 169
114 319
114 501
114 907
115 169
115 233
115 320
115 334
115 423
115 448
115 456
115 473
115 493
115 613
115 619
115 826
116 482
116 948
117 303
117 321
117 322
117 323
117 324
117 341
117 356
117 372
117 399
117 433
117 464
117 467
117 468
117 537
117 1685
117 1686
117 1687
117 1688
117 1689
118 685
118 686
118 810
118 1914
118 1915
119 283
119 327
119 544
119 611
119 705
119 1075
119 1076
119 1980
119 1981
119 1982
120 290
120 588
120 803
120 1048
121 824
121 1954
121 1955
121 1956
121 1957
122 124
122 192
122 296
122 328
122 357
122 409
122 415
122 416
122 476
122 541
123 138
123 153
123 154
123 158
123 166
123 177
123 220
123 274
123 316
123 352
123 380
124 192
124 296
124 328
124 357
124 409
124 415
124 416
124 476
124 541
124 1212
125 258
125 298
125 326
125 368
125 384
125 404
125 418
125 429
125 430
125 461
125 462
125 530
125 531
125 556
125 585
125 587
125 589
125 674
125 681
125 703
125 718
125 719
125 802
125 1270
126 150
126 211
126 256
126 329
126 335
126 366
126 392
126 485
126 512
126 567
126 568
126 615
126 616
126 632
126 648
126 702
126 737
126 882
126 883
126 884
126 917
126 920
126 1088
126 1445
126 1446
126 1447
126 1448
126 1449
126 1450
127 903
127 927
127 1526
128 185
128 743
128 744
128 892
128 893
128 1380
128 1381
128 1382
128 1383
128 1384
128 1385
128 1386
128 1387
128 1388
128 1389
128 1390
128 1391
128 1392
128 1393
128 1394
128 1395
129 190
129 440
129 492
129 594
129 818
129 819
129 987
129 988
129 1052
129 1056
129 1057
129 1062
129 1735
129 1736
129 1737
129 1738
129 1739
129 1740
129 1741
129 1742
129 1743
129 1744
129 1745
129 1746
129 1747
129 1748
129 1749
129 1750
129 1751
129 1752
129 1753
129 1754
129 1755
129 1756
129 1757
129 1758
129 1759
129 1760
129 1761
129 1762
129 1763
129 1764
129 1765
129 1766
129 1767
129 1768
129 1769
129 1770
129 1771
129 1772
129 1773
129 1774
129 1775
129 1776
129 1777
129 1778
130 329
130 558
130 714
130 842
130 1085
130 1086
130 1993
131 222
131 315
131 349
131 752
132 257
132 296
132 546
132 766
132 971
134 172
134 233
134 269
134 327
134 474
134 504
134 614
134 714
134 833
134 842
134 843
134 1976
134 1977
135 298
135 326
135 368
135 418
135 429
135 430
135 435
135 461
135 462
135 531
135 587
135 719
135 793
135 801
135 805
135 1231
136 143
136 171
136 194
136 266
136 312
136 313
136 321
136 322
136 323
136 333
136 341
136 342
136 343
136 344
136 345
136 356
136 370
136 371
136 372
136 374
136 387
136 389
136 395
136 399
136 403
136 407
136 408
136 433
136 439
136 452
136 453
136 454
136 464
136 468
136 469
136 470
136 488
136 500
136 525
136 564
136 565
136 602
136 649
137 167
137 266
137 282
137 303
137 312
137 313
137 321
137 322
137 323
137 324
137 333
137 341
137 342
137 343
137 344
137 345
137 355
137 356
137 370
137 372
137 374
137 387
137 389
137 395
137 407
137 408
137 432
137 433
137 440
137 452
137 453
137 454
137 464
137 466
137 469
137 470
137 488
137 510
137 537
137 569
137 577
137 643
137 649
137 757
137 861
137 877
138 153
138 166
138 177
138 316
138 382
138 1014
138 1292
138 1293
139 267
139 296
139 325
139 327
139 334
139 402
139 521
139 824
139 908
139 909
139 940
139 1547
139 1548
139 1549
139 1550
139 1551
140 745
140 785
141 147
141 222
141 230
141 268
141 311
141 346
141 351
141 379
141 390
141 428
141 599
141 617
141 637
141 638
141 639
141 941
141 1523
141 1524
142 297
142 315
142 320
142 414
142 427
142 527
142 805
142 903
142 904
142 1540
142 1541
143 171
143 194
143 219
143 266
143 303
143 312
143 313
143 321
143 322
143 323
143 324
143 333
143 341
143 342
143 343
143 344
143 345
143 356
143 371
143 372
143 387
143 389
143 395
143 399
143 407
143 408
143 432
143 452
143 453
143 454
143 467
143 468
143 470
143 488
143 500
143 525
143 538
143 564
143 565
143 645
143 759
144 188
144 678
144 679
144 804
144 1907
145 388
145 412
145 432
145 510
145 923
145 924
145 1074
145 1087
145 1587
145 1588
145 1589
145 1590
145 1591
145 1592
146 666
146 667
146 668
146 1462
146 1463
146 1464
146 1465
146 1466
146 1467
146 1468
146 1469
147 222
147 262
147 268
147 282
147 346
147 351
147 418
147 471
147 489
147 514
147 517
147 572
147 637
147 725
147 1518
148 311
148 428
148 460
148 499
148 526
148 586
148 673
148 697
148 700
148 797
148 799
148 1036
148 1655
148 1656
148 1657
149 211
149 240
149 268
149 282
149 346
149 965
150 244
150 250
150 256
150 366
150 392
150 451
150 471
150 485
150 491
150 512
150 568
150 571
150 615
150 616
150 620
150 621
150 630
150 632
150 633
150 634
150 635
150 722
150 726
150 746
150 760
150 881
150 882
150 1438
150 1439
150 1440
150 1441
150 1442
150 1443
151 153
151 316
151 365
151 524
151 1021
151 1571
151 1572
151 1573
151 1574
151 1575
152 296
152 529
152 584
152 665
152 784
152 785
152 1022
152 1857
152 1858
152 1859
152 1860
152 1861
152 1862
152 1863
152 1864
152 1865
153 154
153 158
153 159
153 163
153 166
153 177
153 179
153 201
153 203
153 209
153 220
153 235
153 264
153 295
153 338
153 360
153 363
153 382
153 424
153 457
153 487
153 497
153 513
154 166
154 177
154 255
154 274
154 410
154 437
154 1089
155 509
155 1521
155 1522
156 441
156 690
156 773
156 817
156 997
156 1786
156 1787
156 1788
156 1789
156 1790
156 1791
156 1792
156 1793
156 1794
156 1795
156 1796
156 1797
156 1798
156 1799
156 1800
156 1801
156 1802
156 1803
156 1804
156 1805
156 1806
156 1807
156 1808
156 1809
156 1810
156 1811
156 1812
157 326
157 430
157 540
158 166
158 177
158 207
158 209
158 264
158 273
158 316
158 364
158 365
158 410
158 437
158 492
158 496
158 523
158 581
158 756
158 825
158 963
158 964
158 990
158 1672
158 1673
159 166
159 177
159 316
159 365
159 382
159 410
159 437
159 495
159 496
159 524
159 998
159 1585
159 1586
160 279
160 806
160 890
160 1164
161 228
161 232
161 348
161 377
161 378
161 442
161 444
161 445
161 446
161 463
161 477
161 478
161 506
161 549
161 550
161 552
161 553
161 554
161 605
161 672
161 706
161 708
161 794
161 795
161 838
161 1033
161 1034
161 1081
161 1896
161 1897
161 1898
162 222
162 262
162 282
162 599
162 628
162 638
162 641
163 166
163 177
163 207
163 264
163 273
163 274
163 284
163 364
163 410
163 425
163 437
163 610
163 951
164 315
164 375
164 501
164 924
164 956
164 1300
165 647
165 1653
166 179
166 203
166 207
166 220
166 255
166 264
166 274
166 295
166 338
166 363
166 380
166 382
166 424
166 457
166 513
167 266
167 303
167 313
167 321
167 322
167 323
167 324
167 333
167 341
167 343
167 344
167 345
167 356
167 370
167 372
167 389
167 408
167 432
167 537
167 577
167 643
167 644
167 645
167 646
167 757
167 758
167 759
167 967
168 373
168 374
168 519
168 576
168 597
168 762
169 239
169 310
169 414
169 613
169 792
169 1883
169 1884
169 1885
169 1886
169 1887
169 1888
169 1889
170 773
170 1621
171 194
171 219
171 313
171 321
171 322
171 324
171 345
171 356
171 370
171 372
171 387
171 389
171 395
171 399
171 403
171 407
171 408
171 433
171 439
171 452
171 453
171 454
171 459
171 464
171 466
171 468
171 469
171 470
171 538
171 565
172 233
172 474
172 833
172 1855
172 1856
173 256
173 268
173 303
173 329
173 330
173 362
173 366
173 392
173 451
173 517
173 568
173 630
173 737
173 916
173 917
173 918
173 919
173 920
174 297
174 315
174 436
174 509
174 612
174 995
174 1069
175 320
175 391
175 412
175 498
175 1032
176 191
176 199
176 232
176 348
176 377
176 378
176 442
176 443
176 444
176 445
176 446
176 463
176 478
176 479
176 480
176 505
176 506
176 507
176 508
176 532
176 533
176 545
176 546
176 547
176 555
176 590
176 591
176 606
176 608
176 682
176 683
176 684
176 807
176 808
177 179
177 203
177 207
177 220
177 255
177 264
177 274
177 295
177 338
177 363
177 380
177 382
177 424
177 457
177 513
178 256
178 406
178 482
178 913
178 1560
178 1561
178 1562
178 1563
178 1564
178 1565
178 1566
178 1567
178 1568
178 1569
178 1570
179 203
179 397
179 487
179 497
179 1015
179 1670
180 390
180 473
180 826
180 1671
181 187
181 311
181 428
181 460
181 499
181 526
181 586
181 673
181 796
181 797
181 798
181 799
181 1035
181 1036
182 204
182 211
182 237
182 351
182 379
182 660
182 775
183 266
183 267
183 268
183 311
183 320
183 334
183 340
183 412
183 456
183 498
183 522
183 659
183 720
183 880
184 311
184 334
184 406
184 456
184 520
184 522
184 1315
184 1316
184 1317
184 1318
184 1319
184 1320
184 1321
184 1322
184 1323
184 1324
184 1325
184 1326
184 1327
185 743
185 744
185 934
185 935
185 936
185 937
185 938
186 391
186 583
186 663
186 984
186 985
187 233
187 311
187 319
187 320
187 428
187 460
187 522
187 542
188 202
188 325
188 486
188 678
188 679
188 770
189 238
189 268
189 277
189 282
189 307
189 330
189 346
189 376
189 386
189 400
189 411
189 414
189 456
189 491
189 520
189 699
189 701
189 986
190 369
190 406
190 440
190 594
190 712
190 817
190 818
190 819
190 829
190 1052
190 1053
190 1054
190 1055
190 1056
190 1057
190 1058
190 1059
190 1060
190 1061
190 1062
190 1063
190 1917
190 1918
190 1919
190 1920
190 1921
190 1922
190 1923
190 1924
190 1925
190 1926
190 1927
190 1928
190 1929
190 1930
190 1931
190 1932
190 1933
191 291
191 348
191 377
191 378
191 444
191 446
191 477
191 506
191 507
191 508
191 548
191 553
191 555
191 607
191 662
191 876
191 1302
191 1303
191 1304
192 315
192 404
192 952
192 1652
193 788
193 789
193 891
193 1418
193 1419
193 1420
193 1421
193 1422
193 1423
193 1424
194 266
194 313
194 321
194 322
194 323
194 324
194 333
194 341
194 342
194 343
194 344
194 345
194 356
194 370
194 371
194 372
194 387
194 389
194 395
194 407
194 452
194 453
194 454
194 488
194 538
194 565
194 779
195 233
195 402
195 653
195 704
196 735
196 1271
196 1272
196 1273
197 603
197 1843
197 1844
197 1845
198 781
198 1416
198 1417
199 348
199 377
199 378
199 442
199 443
199 444
199 477
199 478
199 479
199 480
199 505
199 506
199 508
199 532
199 533
199 546
199 547
199 548
199 549
199 552
199 555
199 590
199 591
199 608
199 682
199 683
199 885
199 1080
200 439
200 450
200 620
200 736
200 895
200 1519
201 273
201 274
201 425
201 610
201 695
201 738
202 679
202 770
202 804
202 1525
203 209
203 316
203 338
203 352
203 365
203 424
203 495
203 1020
204 660
204 978
205 267
205 334
205 391
205 414
205 493
205 830
206 211
206 256
206 306
206 329
206 366
206 381
206 392
206 451
206 485
206 567
206 568
206 571
206 615
206 632
206 633
206 634
206 635
206 746
206 930
206 931
206 1610
207 273
207 274
207 316
207 352
207 364
207 365
207 484
207 655
207 664
207 711
207 756
207 932
207 933
208 296
208 302
208 325
208 332
208 349
208 427
208 458
208 541
208 787
208 841
208 1025
209 220
209 264
209 295
209 338
209 382
209 397
209 424
209 457
209 497
209 513
209 1667
209 1668
210 225
210 233
210 271
210 277
210 330
210 400
210 411
210 579
211 329
211 346
211 351
211 379
211 617
211 621
211 965
211 1520
212 267
212 298
212 333
212 342
212 371
212 423
212 440
212 441
212 456
212 486
212 515
212 516
212 519
212 525
212 748
212 749
212 774
212 820
212 829
212 944
212 945
212 946
212 947
212 1634
212 1635
212 1636
212 1637
212 1638
213 319
213 326
213 359
213 388
213 430
213 461
213 492
213 509
213 518
213 669
213 680
213 752
213 753
213 780
213 782
213 783
213 839
213 955
213 956
213 957
213 958
213 959
213 973
213 1658
213 1659
213 1660
213 1661
213 1662
213 1663
213 1664
213 1665
213 1666
214 311
214 428
214 460
214 499
214 526
214 586
214 673
214 796
214 797
214 798
214 1035
215 233
215 474
215 609
215 827
215 1444
216 412
216 544
216 913
217 233
217 267
217 404
217 409
217 427
217 458
217 1530
218 501
218 1049
219 312
219 313
219 321
219 322
219 324
219 342
219 343
219 344
219 345
219 356
219 370
219 371
219 372
219 387
219 389
219 395
219 399
219 408
219 433
219 453
219 454
219 464
219 468
219 469
219 470
220 273
220 410
220 437
220 503
220 695
220 696
220 825
220 1073
221 284
221 610
221 711
221 840
221 1083
221 1084
221 1987
221 1988
222 230
222 262
222 346
222 471
222 514
222 599
222 617
222 637
222 638
222 639
222 755
222 941
223 385
223 405
223 431
223 592
224 373
224 374
224 535
224 536
224 593
224 596
224 688
224 689
224 814
224 815
224 816
224 1051
225 268
225 271
225 277
225 282
225 307
225 330
225 370
225 376
225 386
225 400
225 411
225 438
225 579
225 611
225 953
225 954
226 786
226 904
226 1269
227 303
227 313
227 321
227 333
227 355
227 373
227 374
227 434
227 575
227 650
228 233
228 326
228 348
228 377
228 391
228 444
228 446
228 463
228 478
228 479
228 552
228 553
228 554
228 605
228 672
228 706
228 786
228 1024
229 516
229 562
229 563
229 593
229 622
229 624
229 689
229 721
229 815
229 816
229 1398
229 1399
230 351
230 379
230 514
230 572
230 573
230 628
230 637
230 641
231 248
231 313
231 321
231 333
231 367
231 399
231 403
231 412
231 434
231 439
231 459
231 467
231 489
231 575
231 723
231 724
231 791
231 889
231 894
232 348
232 378
232 442
232 443
232 444
232 445
232 446
232 478
232 479
232 505
232 507
232 533
232 545
232 550
232 551
232 554
232 591
232 636
232 672
232 684
233 251
233 286
233 299
233 426
234 504
234 570
234 1614
234 1615
234 1616
234 1617
234 1618
234 1619
234 1620
235 255
235 1313
235 1314
236 406
236 414
236 456
236 493
236 659
236 774
236 810
236 999
236 1817
236 1818
236 1819
236 1820
236 1821
236 1822
237 351
237 379
237 573
237 660
237 775
237 1246
238 271
238 277
238 282
238 307
238 312
238 330
238 367
238 376
238 386
238 400
238 411
238 438
238 456
238 694
239 267
239 268
239 319
239 334
239 473
239 520
239 522
241 334
241 340
241 349
241 423
241 493
241 519
241 557
241 595
241 739
241 742
241 753
242 303
242 323
242 324
242 341
242 342
242 343
242 344
242 345
242 389
242 602
242 694
242 1958
243 741
243 907
244 250
244 329
244 366
244 392
244 485
244 491
244 512
244 567
244 621
244 635
244 639
244 641
244 726
244 1509
244 1510
244 1511
245 327
245 502
245 544
245 658
246 428
246 460
246 499
246 526
246 586
246 673
246 796
247 868
247 897
247 928
248 313
248 321
248 367
248 403
248 434
248 439
248 459
248 790
248 791
248 1031
249 315
249 691
249 692
249 693
249 712
249 822
249 823
249 1069
249 1070
249 1071
249 1948
249 1949
249 1950
249 1951
249 1952
250 392
250 512
250 1453
250 1454
250 1455
250 1456
251 268
251 334
251 390
251 391
251 406
251 498
251 1612
251 1613
252 298
252 326
252 331
252 368
252 435
252 528
252 585
252 640
252 751
252 949
252 950
252 1650
252 1651
253 611
254 999
254 1539
255 273
255 316
255 364
256 329
256 366
256 392
256 396
256 481
256 571
256 648
256 747
256 881
257 261
257 294
257 418
257 539
257 696
257 725
257 763
257 765
257 766
257 862
257 887
257 976
257 977
258 298
258 326
258 368
258 404
258 418
258 429
258 430
258 461
258 462
258 528
258 530
258 556
258 587
258 589
258 681
258 802
259 558
259 834
260 573
260 715
260 1267
260 1268
261 440
261 539
261 594
261 661
261 680
261 777
261 1001
261 1002
261 1826
261 1827
261 1828
261 1829
261 1830
261 1831
261 1832
261 1833
261 1834
261 1835
261 1836
261 1837
261 1838
261 1839
261 1840
261 1841
262 263
262 268
262 282
262 346
262 351
262 386
262 471
262 617
263 599
263 628
263 1480
264 996
265 290
265 404
265 1011
265 1165
266 299
266 355
266 383
267 299
267 353
267 361
267 502
268 269
269 614
269 843
270 340
270 373
270 486
270 576
270 598
270 1066
270 1067
270 1305
270 1306
271 277
271 282
271 307
271 312
271 330
271 367
271 386
271 400
271 411
271 438
271 579
272 430
272 583
272 998
272 1813
272 1814
272 1815
272 1816
273 274
273 284
273 360
273 421
274 360
274 523
274 1654
275 509
275 777
275 896
275 1247
275 1248
275 1249
275 1250
276 417
276 902
276 1538
277 307
277 330
277 367
277 386
277 400
277 438
277 579
278 591
278 684
278 771
278 992
278 993
279 792
279 1872
279 1873
280 326
280 368
280 429
280 461
280 528
280 556
280 585
280 589
280 681
280 712
280 793
280 1890
280 1891
280 1892
280 1893
280 1894
280 1895
281 471
281 539
281 599
282 449
282 560
282 574
283 327
283 502
283 544
283 629
284 410
284 581
284 840
285 340
285 423
285 451
285 483
285 535
285 625
285 871
285 872
286 619
286 880
287 580
287 588
287 1733
287 1734
288 322
288 389
288 395
288 399
288 434
288 454
288 459
288 470
288 564
288 597
289 436
289 1779
289 1780
290 530
290 1906
291 348
291 377
291 443
291 445
291 532
291 533
291 549
291 551
291 636
291 876
291 885
292 959
292 1251
292 1252
292 1253
292 1254
292 1255
293 327
293 334
293 406
293 473
293 522
293 658
293 705
293 1291
294 539
294 696
294 725
294 763
294 765
294 887
294 975
295 365
295 979
296 304
296 314
298 331
298 384
299 320
299 391
299 406
299 465
299 498
299 724
299 739
299 832
300 652
301 312
301 340
301 434
301 465
301 543
301 620
301 722
301 723
301 760
301 878
302 332
302 787
302 1868
302 1869
302 1870
302 1871
304 349
304 406
304 619
304 652
304 735
304 879
304 1063
304 1093
304 1094
304 1095
304 1096
304 1097
304 1098
305 366
305 393
305 450
305 558
305 566
305 1415
306 329
306 366
306 392
306 512
306 517
306 567
306 572
306 633
306 642
306 726
306 930
306 962
307 346
308 315
308 325
308 772
308 994
309 783
309 1022
310 801
310 1011
312 398
314 325
314 359
314 436
314 1959
316 363
317 340
317 603
317 865
317 1290
318 492
318 521
318 665
318 745
318 784
318 909
318 1470
318 1471
318 1472
318 1473
318 1474
318 1475
318 1476
318 1477
318 1478
318 1479
319 354
320 361
323 383
326 384
328 358
328 413
329 335
329 381
329 396
329 481
330 355
330 362
331 435
331 674
331 675
331 1027
331 1040
331 1867
332 787
332 1025
334 353
334 472
335 392
335 418
335 615
335 616
335 1088
335 1998
335 1999
336 499
336 526
336 798
336 799
337 776
338 352
339 1842
342 398
345 809
347 377
347 443
347 445
347 463
347 480
347 710
347 1018
347 1024
348 1026
350 613
351 560
351 574
352 382
352 457
353 414
353 493
353 520
353 739
353 1301
354 1000
355 367
355 412
355 474
357 358
358 415
358 416
358 447
360 364
360 484
360 695
361 406
361 659
361 676
361 786
361 1232
361 1233
362 630
362 916
366 381
366 396
369 440
369 818
369 819
369 988
369 1053
369 1054
369 1055
369 1058
369 1059
369 1060
369 1061
376 560
378 490
381 634
381 747
381 943
383 426
383 488
383 666
383 667
383 668
384 418
384 429
384 531
384 585
384 703
384 793
388 1936
388 1937
388 1938
388 1939
388 1940
388 1941
393 450
393 566
394 492
394 727
394 728
394 777
394 896
394 897
394 1001
394 1527
394 1528
394 1529
396 485
396 571
396 746
396 747
396 943
397 487
397 497
398 399
398 690
398 760
413 476
414 472
419 430
419 531
419 603
419 866
419 867
420 627
420 1379
421 989
422 942
422 1632
422 1633
426 666
426 667
426 668
428 449
435 600
435 640
449 460
449 499
455 580
472 1953
481 571
481 634
490 569
490 629
490 914
490 915
494 1015
511 1256
539 657
600 1068
640 751
651 771
651 1082
657 1784
700 769
769 1725
769 1726
